p edge 185 1803
v 1 589
v 2 540
v 3 480
v 4 367
v 5 524
v 6 604
v 7 374
v 8 234
v 9 620
v 10 528
v 11 603
v 12 241
v 13 502
v 14 640
v 15 448
v 16 263
v 17 240
v 18 388
v 19 208
v 20 470
v 21 487
v 22 481
v 23 211
v 24 448
v 25 694
v 26 497
v 27 347
v 28 617
v 29 288
v 30 663
v 31 279
v 32 703
v 33 441
v 34 363
v 35 253
v 36 684
v 37 236
v 38 672
v 39 258
v 40 396
v 41 210
v 42 682
v 43 694
v 44 273
v 45 243
v 46 698
v 47 627
v 48 255
v 49 363
v 50 663
v 51 509
v 52 686
v 53 661
v 54 655
v 55 284
v 56 498
v 57 423
v 58 338
v 59 431
v 60 580
v 61 301
v 62 290
v 63 467
v 64 538
v 65 606
v 66 238
v 67 289
v 68 304
v 69 375
v 70 228
v 71 511
v 72 295
v 73 284
v 74 330
v 75 479
v 76 616
v 77 257
v 78 213
v 79 308
v 80 539
v 81 205
v 82 363
v 83 400
v 84 591
v 85 388
v 86 465
v 87 576
v 88 672
v 89 650
v 90 222
v 91 608
v 92 378
v 93 347
v 94 607
v 95 355
v 96 613
v 97 655
v 98 486
v 99 630
v 100 299
v 101 285
v 102 552
v 103 300
v 104 559
v 105 227
v 106 501
v 107 442
v 108 611
v 109 321
v 110 420
v 111 300
v 112 310
v 113 639
v 114 537
v 115 437
v 116 205
v 117 373
v 118 665
v 119 683
v 120 229
v 121 295
v 122 484
v 123 265
v 124 376
v 125 535
v 126 387
v 127 494
v 128 241
v 129 402
v 130 540
v 131 492
v 132 683
v 133 325
v 134 429
v 135 464
v 136 264
v 137 638
v 138 488
v 139 507
v 140 587
v 141 589
v 142 646
v 143 350
v 144 493
v 145 662
v 146 213
v 147 586
v 148 374
v 149 534
v 150 226
v 151 285
v 152 566
v 153 257
v 154 669
v 155 380
v 156 219
v 157 633
v 158 432
v 159 542
v 160 598
v 161 212
v 162 629
v 163 246
v 164 543
v 165 290
v 166 622
v 167 424
v 168 288
v 169 268
v 170 445
v 171 306
v 172 266
v 173 640
v 174 531
v 175 464
v 176 377
v 177 209
v 178 487
v 179 398
v 180 616
v 181 408
v 182 609
v 183 236
v 184 411
v 185 319
e 1 2
e 1 3
e 1 4
e 1 5
e 1 6
e 1 7
e 1 8
e 1 9
e 1 10
e 1 11
e 1 12
e 1 48
e 1 58
e 1 70
e 1 100
e 1 112
e 1 123
e 1 143
e 1 175
e 2 3
e 2 4
e 2 5
e 2 6
e 2 7
e 2 8
e 2 9
e 2 10
e 2 11
e 2 13
e 2 37
e 2 49
e 2 59
e 2 76
e 2 91
e 2 113
e 2 124
e 2 144
e 2 153
e 2 165
e 2 176
e 3 4
e 3 5
e 3 6
e 3 7
e 3 8
e 3 9
e 3 10
e 3 11
e 3 27
e 3 71
e 3 103
e 3 115
e 3 146
e 3 167
e 4 5
e 4 6
e 4 7
e 4 8
e 4 9
e 4 10
e 4 11
e 4 28
e 4 78
e 4 85
e 4 104
e 4 126
e 4 136
e 4 155
e 4 168
e 4 179
e 5 6
e 5 7
e 5 8
e 5 9
e 5 10
e 5 11
e 5 16
e 5 29
e 5 41
e 5 51
e 5 60
e 5 72
e 5 86
e 5 105
e 5 127
e 5 138
e 5 147
e 5 157
e 6 7
e 6 8
e 6 9
e 6 10
e 6 11
e 6 31
e 6 43
e 6 52
e 6 62
e 6 79
e 6 94
e 6 107
e 6 129
e 6 140
e 6 148
e 6 180
e 7 8
e 7 9
e 7 10
e 7 11
e 7 18
e 7 44
e 7 53
e 7 80
e 7 87
e 7 95
e 7 108
e 7 130
e 7 149
e 7 159
e 7 181
e 8 9
e 8 10
e 8 11
e 8 19
e 8 54
e 8 63
e 8 81
e 8 117
e 8 160
e 8 170
e 9 10
e 9 11
e 9 22
e 9 56
e 9 66
e 9 74
e 9 96
e 9 110
e 9 119
e 9 142
e 9 151
e 9 162
e 9 172
e 9 183
e 10 11
e 10 23
e 10 34
e 10 67
e 10 75
e 10 82
e 10 89
e 10 97
e 10 120
e 10 132
e 10 163
e 10 173
e 11 24
e 11 36
e 11 47
e 11 69
e 11 83
e 11 99
e 11 122
e 11 134
e 11 164
e 11 185
e 12 13
e 12 14
e 12 15
e 12 16
e 12 17
e 12 18
e 12 19
e 12 20
e 12 21
e 12 22
e 12 23
e 12 24
e 12 48
e 12 58
e 12 70
e 12 100
e 12 112
e 12 123
e 12 143
e 12 175
e 13 14
e 13 15
e 13 16
e 13 17
e 13 18
e 13 19
e 13 20
e 13 21
e 13 22
e 13 23
e 13 24
e 13 37
e 13 49
e 13 59
e 13 76
e 13 91
e 13 113
e 13 124
e 13 144
e 13 153
e 13 165
e 13 176
e 14 15
e 14 16
e 14 17
e 14 18
e 14 19
e 14 20
e 14 21
e 14 22
e 14 23
e 14 24
e 14 25
e 14 38
e 14 84
e 14 101
e 14 177
e 15 16
e 15 17
e 15 18
e 15 19
e 15 20
e 15 21
e 15 22
e 15 23
e 15 24
e 15 26
e 15 39
e 15 77
e 15 92
e 15 102
e 15 114
e 15 125
e 15 135
e 15 145
e 15 154
e 15 166
e 15 178
e 16 17
e 16 18
e 16 19
e 16 20
e 16 21
e 16 22
e 16 23
e 16 24
e 16 29
e 16 41
e 16 51
e 16 60
e 16 72
e 16 86
e 16 105
e 16 127
e 16 138
e 16 147
e 16 157
e 17 18
e 17 19
e 17 20
e 17 21
e 17 22
e 17 23
e 17 24
e 17 30
e 17 42
e 17 61
e 17 106
e 17 128
e 17 139
e 17 158
e 17 169
e 18 19
e 18 20
e 18 21
e 18 22
e 18 23
e 18 24
e 18 44
e 18 53
e 18 80
e 18 87
e 18 95
e 18 108
e 18 130
e 18 149
e 18 159
e 18 181
e 19 20
e 19 21
e 19 22
e 19 23
e 19 24
e 19 54
e 19 63
e 19 81
e 19 117
e 19 160
e 19 170
e 20 21
e 20 22
e 20 23
e 20 24
e 20 32
e 20 45
e 20 64
e 20 88
e 20 109
e 20 131
e 20 141
e 20 150
e 20 161
e 20 171
e 20 182
e 21 22
e 21 23
e 21 24
e 21 33
e 21 46
e 21 55
e 21 65
e 21 73
e 21 118
e 22 23
e 22 24
e 22 56
e 22 66
e 22 74
e 22 96
e 22 110
e 22 119
e 22 142
e 22 151
e 22 162
e 22 172
e 22 183
e 23 24
e 23 34
e 23 67
e 23 75
e 23 82
e 23 89
e 23 97
e 23 120
e 23 132
e 23 163
e 23 173
e 24 36
e 24 47
e 24 69
e 24 83
e 24 99
e 24 122
e 24 134
e 24 164
e 24 185
e 25 26
e 25 27
e 25 28
e 25 29
e 25 30
e 25 31
e 25 32
e 25 33
e 25 34
e 25 35
e 25 36
e 25 38
e 25 84
e 25 101
e 25 177
e 26 27
e 26 28
e 26 29
e 26 30
e 26 31
e 26 32
e 26 33
e 26 34
e 26 35
e 26 36
e 26 39
e 26 77
e 26 92
e 26 102
e 26 114
e 26 125
e 26 135
e 26 145
e 26 154
e 26 166
e 26 178
e 27 28
e 27 29
e 27 30
e 27 31
e 27 32
e 27 33
e 27 34
e 27 35
e 27 36
e 27 71
e 27 103
e 27 115
e 27 146
e 27 167
e 28 29
e 28 30
e 28 31
e 28 32
e 28 33
e 28 34
e 28 35
e 28 36
e 28 78
e 28 85
e 28 104
e 28 126
e 28 136
e 28 155
e 28 168
e 28 179
e 29 30
e 29 31
e 29 32
e 29 33
e 29 34
e 29 35
e 29 36
e 29 41
e 29 51
e 29 60
e 29 72
e 29 86
e 29 105
e 29 127
e 29 138
e 29 147
e 29 157
e 30 31
e 30 32
e 30 33
e 30 34
e 30 35
e 30 36
e 30 42
e 30 61
e 30 106
e 30 128
e 30 139
e 30 158
e 30 169
e 31 32
e 31 33
e 31 34
e 31 35
e 31 36
e 31 43
e 31 52
e 31 62
e 31 79
e 31 94
e 31 107
e 31 129
e 31 140
e 31 148
e 31 180
e 32 33
e 32 34
e 32 35
e 32 36
e 32 45
e 32 64
e 32 88
e 32 109
e 32 131
e 32 141
e 32 150
e 32 161
e 32 171
e 32 182
e 33 34
e 33 35
e 33 36
e 33 46
e 33 55
e 33 65
e 33 73
e 33 118
e 34 35
e 34 36
e 34 67
e 34 75
e 34 82
e 34 89
e 34 97
e 34 120
e 34 132
e 34 163
e 34 173
e 35 36
e 35 57
e 35 68
e 35 90
e 35 98
e 35 111
e 35 121
e 35 133
e 35 152
e 35 174
e 35 184
e 36 47
e 36 69
e 36 83
e 36 99
e 36 122
e 36 134
e 36 164
e 36 185
e 37 38
e 37 39
e 37 40
e 37 41
e 37 42
e 37 43
e 37 44
e 37 45
e 37 46
e 37 47
e 37 49
e 37 59
e 37 76
e 37 91
e 37 113
e 37 124
e 37 144
e 37 153
e 37 165
e 37 176
e 38 39
e 38 40
e 38 41
e 38 42
e 38 43
e 38 44
e 38 45
e 38 46
e 38 47
e 38 84
e 38 101
e 38 177
e 39 40
e 39 41
e 39 42
e 39 43
e 39 44
e 39 45
e 39 46
e 39 47
e 39 77
e 39 92
e 39 102
e 39 114
e 39 125
e 39 135
e 39 145
e 39 154
e 39 166
e 39 178
e 40 41
e 40 42
e 40 43
e 40 44
e 40 45
e 40 46
e 40 47
e 40 50
e 40 93
e 40 116
e 40 137
e 40 156
e 41 42
e 41 43
e 41 44
e 41 45
e 41 46
e 41 47
e 41 51
e 41 60
e 41 72
e 41 86
e 41 105
e 41 127
e 41 138
e 41 147
e 41 157
e 42 43
e 42 44
e 42 45
e 42 46
e 42 47
e 42 61
e 42 106
e 42 128
e 42 139
e 42 158
e 42 169
e 43 44
e 43 45
e 43 46
e 43 47
e 43 52
e 43 62
e 43 79
e 43 94
e 43 107
e 43 129
e 43 140
e 43 148
e 43 180
e 44 45
e 44 46
e 44 47
e 44 53
e 44 80
e 44 87
e 44 95
e 44 108
e 44 130
e 44 149
e 44 159
e 44 181
e 45 46
e 45 47
e 45 64
e 45 88
e 45 109
e 45 131
e 45 141
e 45 150
e 45 161
e 45 171
e 45 182
e 46 47
e 46 55
e 46 65
e 46 73
e 46 118
e 47 69
e 47 83
e 47 99
e 47 122
e 47 134
e 47 164
e 47 185
e 48 49
e 48 50
e 48 51
e 48 52
e 48 53
e 48 54
e 48 55
e 48 56
e 48 57
e 48 58
e 48 70
e 48 100
e 48 112
e 48 123
e 48 143
e 48 175
e 49 50
e 49 51
e 49 52
e 49 53
e 49 54
e 49 55
e 49 56
e 49 57
e 49 59
e 49 76
e 49 91
e 49 113
e 49 124
e 49 144
e 49 153
e 49 165
e 49 176
e 50 51
e 50 52
e 50 53
e 50 54
e 50 55
e 50 56
e 50 57
e 50 93
e 50 116
e 50 137
e 50 156
e 51 52
e 51 53
e 51 54
e 51 55
e 51 56
e 51 57
e 51 60
e 51 72
e 51 86
e 51 105
e 51 127
e 51 138
e 51 147
e 51 157
e 52 53
e 52 54
e 52 55
e 52 56
e 52 57
e 52 62
e 52 79
e 52 94
e 52 107
e 52 129
e 52 140
e 52 148
e 52 180
e 53 54
e 53 55
e 53 56
e 53 57
e 53 80
e 53 87
e 53 95
e 53 108
e 53 130
e 53 149
e 53 159
e 53 181
e 54 55
e 54 56
e 54 57
e 54 63
e 54 81
e 54 117
e 54 160
e 54 170
e 55 56
e 55 57
e 55 65
e 55 73
e 55 118
e 56 57
e 56 66
e 56 74
e 56 96
e 56 110
e 56 119
e 56 142
e 56 151
e 56 162
e 56 172
e 56 183
e 57 68
e 57 90
e 57 98
e 57 111
e 57 121
e 57 133
e 57 152
e 57 174
e 57 184
e 58 59
e 58 60
e 58 61
e 58 62
e 58 63
e 58 64
e 58 65
e 58 66
e 58 67
e 58 68
e 58 69
e 58 70
e 58 100
e 58 112
e 58 123
e 58 143
e 58 175
e 59 60
e 59 61
e 59 62
e 59 63
e 59 64
e 59 65
e 59 66
e 59 67
e 59 68
e 59 69
e 59 76
e 59 91
e 59 113
e 59 124
e 59 144
e 59 153
e 59 165
e 59 176
e 60 61
e 60 62
e 60 63
e 60 64
e 60 65
e 60 66
e 60 67
e 60 68
e 60 69
e 60 72
e 60 86
e 60 105
e 60 127
e 60 138
e 60 147
e 60 157
e 61 62
e 61 63
e 61 64
e 61 65
e 61 66
e 61 67
e 61 68
e 61 69
e 61 106
e 61 128
e 61 139
e 61 158
e 61 169
e 62 63
e 62 64
e 62 65
e 62 66
e 62 67
e 62 68
e 62 69
e 62 79
e 62 94
e 62 107
e 62 129
e 62 140
e 62 148
e 62 180
e 63 64
e 63 65
e 63 66
e 63 67
e 63 68
e 63 69
e 63 81
e 63 117
e 63 160
e 63 170
e 64 65
e 64 66
e 64 67
e 64 68
e 64 69
e 64 88
e 64 109
e 64 131
e 64 141
e 64 150
e 64 161
e 64 171
e 64 182
e 65 66
e 65 67
e 65 68
e 65 69
e 65 73
e 65 118
e 66 67
e 66 68
e 66 69
e 66 74
e 66 96
e 66 110
e 66 119
e 66 142
e 66 151
e 66 162
e 66 172
e 66 183
e 67 68
e 67 69
e 67 75
e 67 82
e 67 89
e 67 97
e 67 120
e 67 132
e 67 163
e 67 173
e 68 69
e 68 90
e 68 98
e 68 111
e 68 121
e 68 133
e 68 152
e 68 174
e 68 184
e 69 83
e 69 99
e 69 122
e 69 134
e 69 164
e 69 185
e 70 71
e 70 72
e 70 73
e 70 74
e 70 75
e 70 100
e 70 112
e 70 123
e 70 143
e 70 175
e 71 72
e 71 73
e 71 74
e 71 75
e 71 103
e 71 115
e 71 146
e 71 167
e 72 73
e 72 74
e 72 75
e 72 86
e 72 105
e 72 127
e 72 138
e 72 147
e 72 157
e 73 74
e 73 75
e 73 118
e 74 75
e 74 96
e 74 110
e 74 119
e 74 142
e 74 151
e 74 162
e 74 172
e 74 183
e 75 82
e 75 89
e 75 97
e 75 120
e 75 132
e 75 163
e 75 173
e 76 77
e 76 78
e 76 79
e 76 80
e 76 81
e 76 82
e 76 83
e 76 91
e 76 113
e 76 124
e 76 144
e 76 153
e 76 165
e 76 176
e 77 78
e 77 79
e 77 80
e 77 81
e 77 82
e 77 83
e 77 92
e 77 102
e 77 114
e 77 125
e 77 135
e 77 145
e 77 154
e 77 166
e 77 178
e 78 79
e 78 80
e 78 81
e 78 82
e 78 83
e 78 85
e 78 104
e 78 126
e 78 136
e 78 155
e 78 168
e 78 179
e 79 80
e 79 81
e 79 82
e 79 83
e 79 94
e 79 107
e 79 129
e 79 140
e 79 148
e 79 180
e 80 81
e 80 82
e 80 83
e 80 87
e 80 95
e 80 108
e 80 130
e 80 149
e 80 159
e 80 181
e 81 82
e 81 83
e 81 117
e 81 160
e 81 170
e 82 83
e 82 89
e 82 97
e 82 120
e 82 132
e 82 163
e 82 173
e 83 99
e 83 122
e 83 134
e 83 164
e 83 185
e 84 85
e 84 86
e 84 87
e 84 88
e 84 89
e 84 90
e 84 101
e 84 177
e 85 86
e 85 87
e 85 88
e 85 89
e 85 90
e 85 104
e 85 126
e 85 136
e 85 155
e 85 168
e 85 179
e 86 87
e 86 88
e 86 89
e 86 90
e 86 105
e 86 127
e 86 138
e 86 147
e 86 157
e 87 88
e 87 89
e 87 90
e 87 95
e 87 108
e 87 130
e 87 149
e 87 159
e 87 181
e 88 89
e 88 90
e 88 109
e 88 131
e 88 141
e 88 150
e 88 161
e 88 171
e 88 182
e 89 90
e 89 97
e 89 120
e 89 132
e 89 163
e 89 173
e 90 98
e 90 111
e 90 121
e 90 133
e 90 152
e 90 174
e 90 184
e 91 92
e 91 93
e 91 94
e 91 95
e 91 96
e 91 97
e 91 98
e 91 99
e 91 113
e 91 124
e 91 144
e 91 153
e 91 165
e 91 176
e 92 93
e 92 94
e 92 95
e 92 96
e 92 97
e 92 98
e 92 99
e 92 102
e 92 114
e 92 125
e 92 135
e 92 145
e 92 154
e 92 166
e 92 178
e 93 94
e 93 95
e 93 96
e 93 97
e 93 98
e 93 99
e 93 116
e 93 137
e 93 156
e 94 95
e 94 96
e 94 97
e 94 98
e 94 99
e 94 107
e 94 129
e 94 140
e 94 148
e 94 180
e 95 96
e 95 97
e 95 98
e 95 99
e 95 108
e 95 130
e 95 149
e 95 159
e 95 181
e 96 97
e 96 98
e 96 99
e 96 110
e 96 119
e 96 142
e 96 151
e 96 162
e 96 172
e 96 183
e 97 98
e 97 99
e 97 120
e 97 132
e 97 163
e 97 173
e 98 99
e 98 111
e 98 121
e 98 133
e 98 152
e 98 174
e 98 184
e 99 122
e 99 134
e 99 164
e 99 185
e 100 101
e 100 102
e 100 103
e 100 104
e 100 105
e 100 106
e 100 107
e 100 108
e 100 109
e 100 110
e 100 111
e 100 112
e 100 123
e 100 143
e 100 175
e 101 102
e 101 103
e 101 104
e 101 105
e 101 106
e 101 107
e 101 108
e 101 109
e 101 110
e 101 111
e 101 177
e 102 103
e 102 104
e 102 105
e 102 106
e 102 107
e 102 108
e 102 109
e 102 110
e 102 111
e 102 114
e 102 125
e 102 135
e 102 145
e 102 154
e 102 166
e 102 178
e 103 104
e 103 105
e 103 106
e 103 107
e 103 108
e 103 109
e 103 110
e 103 111
e 103 115
e 103 146
e 103 167
e 104 105
e 104 106
e 104 107
e 104 108
e 104 109
e 104 110
e 104 111
e 104 126
e 104 136
e 104 155
e 104 168
e 104 179
e 105 106
e 105 107
e 105 108
e 105 109
e 105 110
e 105 111
e 105 127
e 105 138
e 105 147
e 105 157
e 106 107
e 106 108
e 106 109
e 106 110
e 106 111
e 106 128
e 106 139
e 106 158
e 106 169
e 107 108
e 107 109
e 107 110
e 107 111
e 107 129
e 107 140
e 107 148
e 107 180
e 108 109
e 108 110
e 108 111
e 108 130
e 108 149
e 108 159
e 108 181
e 109 110
e 109 111
e 109 131
e 109 141
e 109 150
e 109 161
e 109 171
e 109 182
e 110 111
e 110 119
e 110 142
e 110 151
e 110 162
e 110 172
e 110 183
e 111 121
e 111 133
e 111 152
e 111 174
e 111 184
e 112 113
e 112 114
e 112 115
e 112 116
e 112 117
e 112 118
e 112 119
e 112 120
e 112 121
e 112 122
e 112 123
e 112 143
e 112 175
e 113 114
e 113 115
e 113 116
e 113 117
e 113 118
e 113 119
e 113 120
e 113 121
e 113 122
e 113 124
e 113 144
e 113 153
e 113 165
e 113 176
e 114 115
e 114 116
e 114 117
e 114 118
e 114 119
e 114 120
e 114 121
e 114 122
e 114 125
e 114 135
e 114 145
e 114 154
e 114 166
e 114 178
e 115 116
e 115 117
e 115 118
e 115 119
e 115 120
e 115 121
e 115 122
e 115 146
e 115 167
e 116 117
e 116 118
e 116 119
e 116 120
e 116 121
e 116 122
e 116 137
e 116 156
e 117 118
e 117 119
e 117 120
e 117 121
e 117 122
e 117 160
e 117 170
e 118 119
e 118 120
e 118 121
e 118 122
e 119 120
e 119 121
e 119 122
e 119 142
e 119 151
e 119 162
e 119 172
e 119 183
e 120 121
e 120 122
e 120 132
e 120 163
e 120 173
e 121 122
e 121 133
e 121 152
e 121 174
e 121 184
e 122 134
e 122 164
e 122 185
e 123 124
e 123 125
e 123 126
e 123 127
e 123 128
e 123 129
e 123 130
e 123 131
e 123 132
e 123 133
e 123 134
e 123 143
e 123 175
e 124 125
e 124 126
e 124 127
e 124 128
e 124 129
e 124 130
e 124 131
e 124 132
e 124 133
e 124 134
e 124 144
e 124 153
e 124 165
e 124 176
e 125 126
e 125 127
e 125 128
e 125 129
e 125 130
e 125 131
e 125 132
e 125 133
e 125 134
e 125 135
e 125 145
e 125 154
e 125 166
e 125 178
e 126 127
e 126 128
e 126 129
e 126 130
e 126 131
e 126 132
e 126 133
e 126 134
e 126 136
e 126 155
e 126 168
e 126 179
e 127 128
e 127 129
e 127 130
e 127 131
e 127 132
e 127 133
e 127 134
e 127 138
e 127 147
e 127 157
e 128 129
e 128 130
e 128 131
e 128 132
e 128 133
e 128 134
e 128 139
e 128 158
e 128 169
e 129 130
e 129 131
e 129 132
e 129 133
e 129 134
e 129 140
e 129 148
e 129 180
e 130 131
e 130 132
e 130 133
e 130 134
e 130 149
e 130 159
e 130 181
e 131 132
e 131 133
e 131 134
e 131 141
e 131 150
e 131 161
e 131 171
e 131 182
e 132 133
e 132 134
e 132 163
e 132 173
e 133 134
e 133 152
e 133 174
e 133 184
e 134 164
e 134 185
e 135 136
e 135 137
e 135 138
e 135 139
e 135 140
e 135 141
e 135 142
e 135 145
e 135 154
e 135 166
e 135 178
e 136 137
e 136 138
e 136 139
e 136 140
e 136 141
e 136 142
e 136 155
e 136 168
e 136 179
e 137 138
e 137 139
e 137 140
e 137 141
e 137 142
e 137 156
e 138 139
e 138 140
e 138 141
e 138 142
e 138 147
e 138 157
e 139 140
e 139 141
e 139 142
e 139 158
e 139 169
e 140 141
e 140 142
e 140 148
e 140 180
e 141 142
e 141 150
e 141 161
e 141 171
e 141 182
e 142 151
e 142 162
e 142 172
e 142 183
e 143 144
e 143 145
e 143 146
e 143 147
e 143 148
e 143 149
e 143 150
e 143 151
e 143 152
e 143 175
e 144 145
e 144 146
e 144 147
e 144 148
e 144 149
e 144 150
e 144 151
e 144 152
e 144 153
e 144 165
e 144 176
e 145 146
e 145 147
e 145 148
e 145 149
e 145 150
e 145 151
e 145 152
e 145 154
e 145 166
e 145 178
e 146 147
e 146 148
e 146 149
e 146 150
e 146 151
e 146 152
e 146 167
e 147 148
e 147 149
e 147 150
e 147 151
e 147 152
e 147 157
e 148 149
e 148 150
e 148 151
e 148 152
e 148 180
e 149 150
e 149 151
e 149 152
e 149 159
e 149 181
e 150 151
e 150 152
e 150 161
e 150 171
e 150 182
e 151 152
e 151 162
e 151 172
e 151 183
e 152 174
e 152 184
e 153 154
e 153 155
e 153 156
e 153 157
e 153 158
e 153 159
e 153 160
e 153 161
e 153 162
e 153 163
e 153 164
e 153 165
e 153 176
e 154 155
e 154 156
e 154 157
e 154 158
e 154 159
e 154 160
e 154 161
e 154 162
e 154 163
e 154 164
e 154 166
e 154 178
e 155 156
e 155 157
e 155 158
e 155 159
e 155 160
e 155 161
e 155 162
e 155 163
e 155 164
e 155 168
e 155 179
e 156 157
e 156 158
e 156 159
e 156 160
e 156 161
e 156 162
e 156 163
e 156 164
e 157 158
e 157 159
e 157 160
e 157 161
e 157 162
e 157 163
e 157 164
e 158 159
e 158 160
e 158 161
e 158 162
e 158 163
e 158 164
e 158 169
e 159 160
e 159 161
e 159 162
e 159 163
e 159 164
e 159 181
e 160 161
e 160 162
e 160 163
e 160 164
e 160 170
e 161 162
e 161 163
e 161 164
e 161 171
e 161 182
e 162 163
e 162 164
e 162 172
e 162 183
e 163 164
e 163 173
e 164 185
e 165 166
e 165 167
e 165 168
e 165 169
e 165 170
e 165 171
e 165 172
e 165 173
e 165 174
e 165 176
e 166 167
e 166 168
e 166 169
e 166 170
e 166 171
e 166 172
e 166 173
e 166 174
e 166 178
e 167 168
e 167 169
e 167 170
e 167 171
e 167 172
e 167 173
e 167 174
e 168 169
e 168 170
e 168 171
e 168 172
e 168 173
e 168 174
e 168 179
e 169 170
e 169 171
e 169 172
e 169 173
e 169 174
e 170 171
e 170 172
e 170 173
e 170 174
e 171 172
e 171 173
e 171 174
e 171 182
e 172 173
e 172 174
e 172 183
e 173 174
e 174 184
e 175 176
e 175 177
e 175 178
e 175 179
e 175 180
e 175 181
e 175 182
e 175 183
e 175 184
e 175 185
e 176 177
e 176 178
e 176 179
e 176 180
e 176 181
e 176 182
e 176 183
e 176 184
e 176 185
e 177 178
e 177 179
e 177 180
e 177 181
e 177 182
e 177 183
e 177 184
e 177 185
e 178 179
e 178 180
e 178 181
e 178 182
e 178 183
e 178 184
e 178 185
e 179 180
e 179 181
e 179 182
e 179 183
e 179 184
e 179 185
e 180 181
e 180 182
e 180 183
e 180 184
e 180 185
e 181 182
e 181 183
e 181 184
e 181 185
e 182 183
e 182 184
e 182 185
e 183 184
e 183 185
e 184 185
